p tw 176 39601 2 
1 89 
1 91 
1 93 
1 95 
1 98 
1 99 
1 101 
1 103 
1 106 
1 107 
1 110 
1 111 
1 113 
1 115 
1 118 
1 120 
1 121 
1 123 
1 126 
1 128 
1 130 
1 131 
1 134 
1 136 
1 138 
1 140 
1 141 
1 144 
1 146 
1 148 
1 150 
1 152 
1 153 
1 155 
1 158 
1 160 
1 161 
1 164 
1 166 
1 168 
1 170 
1 171 
1 173 
1 175 
2 90 
2 92 
2 94 
2 96 
2 97 
2 100 
2 102 
2 104 
2 105 
2 108 
2 109 
2 112 
2 114 
2 116 
2 117 
2 119 
2 122 
2 124 
2 125 
2 127 
2 129 
2 132 
2 133 
2 135 
2 137 
2 139 
2 142 
2 143 
2 145 
2 147 
2 149 
2 151 
2 154 
2 156 
2 157 
2 159 
2 162 
2 163 
2 165 
2 167 
2 169 
2 172 
2 174 
2 176 
3 4 
3 90 
3 91 
3 93 
3 95 
3 98 
3 100 
3 102 
3 104 
3 105 
3 107 
3 110 
3 111 
3 114 
3 115 
3 117 
3 119 
3 122 
3 124 
3 125 
3 128 
3 130 
3 131 
3 134 
3 135 
3 138 
3 140 
3 141 
3 143 
3 146 
3 147 
3 150 
3 151 
3 154 
3 156 
3 157 
3 160 
3 162 
3 163 
3 166 
3 167 
3 170 
3 171 
3 173 
3 176 
4 89 
4 92 
4 94 
4 96 
4 97 
4 99 
4 101 
4 103 
4 106 
4 108 
4 109 
4 112 
4 113 
4 116 
4 118 
4 120 
4 121 
4 123 
4 126 
4 127 
4 129 
4 132 
4 133 
4 136 
4 137 
4 139 
4 142 
4 144 
4 145 
4 148 
4 149 
4 152 
4 153 
4 155 
4 158 
4 159 
4 161 
4 164 
4 165 
4 168 
4 169 
4 172 
4 174 
4 175 
5 6 
5 90 
5 92 
5 93 
5 96 
5 98 
5 99 
5 101 
5 103 
5 105 
5 108 
5 109 
5 112 
5 113 
5 115 
5 118 
5 120 
5 122 
5 123 
5 125 
5 128 
5 130 
5 132 
5 134 
5 136 
5 137 
5 139 
5 141 
5 143 
5 146 
5 147 
5 150 
5 151 
5 153 
5 155 
5 158 
5 160 
5 162 
5 163 
5 165 
5 167 
5 170 
5 172 
5 174 
5 176 
6 89 
6 91 
6 94 
6 95 
6 97 
6 100 
6 102 
6 104 
6 106 
6 107 
6 110 
6 111 
6 114 
6 116 
6 117 
6 119 
6 121 
6 124 
6 126 
6 127 
6 129 
6 131 
6 133 
6 135 
6 138 
6 140 
6 142 
6 144 
6 145 
6 148 
6 149 
6 152 
6 154 
6 156 
6 157 
6 159 
6 161 
6 164 
6 166 
6 168 
6 169 
6 171 
6 173 
6 175 
7 8 
7 90 
7 91 
7 93 
7 95 
7 97 
7 99 
7 102 
7 103 
7 106 
7 107 
7 110 
7 111 
7 113 
7 116 
7 118 
7 120 
7 122 
7 124 
7 126 
7 128 
7 129 
7 131 
7 133 
7 135 
7 137 
7 139 
7 141 
7 143 
7 145 
7 148 
7 150 
7 152 
7 153 
7 156 
7 157 
7 159 
7 162 
7 164 
7 165 
7 167 
7 170 
7 172 
7 174 
7 176 
8 89 
8 92 
8 94 
8 96 
8 98 
8 100 
8 101 
8 104 
8 105 
8 108 
8 109 
8 112 
8 114 
8 115 
8 117 
8 119 
8 121 
8 123 
8 125 
8 127 
8 130 
8 132 
8 134 
8 136 
8 138 
8 140 
8 142 
8 144 
8 146 
8 147 
8 149 
8 151 
8 154 
8 155 
8 158 
8 160 
8 161 
8 163 
8 166 
8 168 
8 169 
8 171 
8 173 
8 175 
9 10 
9 90 
9 91 
9 93 
9 96 
9 97 
9 99 
9 102 
9 104 
9 105 
9 108 
9 110 
9 112 
9 113 
9 115 
9 117 
9 120 
9 121 
9 123 
9 126 
9 128 
9 130 
9 132 
9 133 
9 135 
9 137 
9 140 
9 141 
9 143 
9 146 
9 147 
9 149 
9 152 
9 154 
9 156 
9 158 
9 159 
9 161 
9 164 
9 166 
9 168 
9 169 
9 171 
9 174 
9 176 
10 89 
10 92 
10 94 
10 95 
10 98 
10 100 
10 101 
10 103 
10 106 
10 107 
10 109 
10 111 
10 114 
10 116 
10 118 
10 119 
10 122 
10 124 
10 125 
10 127 
10 129 
10 131 
10 134 
10 136 
10 138 
10 139 
10 142 
10 144 
10 145 
10 148 
10 150 
10 151 
10 153 
10 155 
10 157 
10 160 
10 162 
10 163 
10 165 
10 167 
10 170 
10 172 
10 173 
10 175 
11 12 
11 90 
11 91 
11 93 
11 95 
11 98 
11 99 
11 102 
11 103 
11 105 
11 107 
11 109 
11 112 
11 114 
11 116 
11 117 
11 120 
11 122 
11 124 
11 125 
11 127 
11 130 
11 131 
11 133 
11 135 
11 138 
11 140 
11 142 
11 143 
11 146 
11 148 
11 149 
11 151 
11 153 
11 155 
11 158 
11 160 
11 161 
11 164 
11 165 
11 168 
11 169 
11 172 
11 174 
11 175 
12 89 
12 92 
12 94 
12 96 
12 97 
12 100 
12 101 
12 104 
12 106 
12 108 
12 110 
12 111 
12 113 
12 115 
12 118 
12 119 
12 121 
12 123 
12 126 
12 128 
12 129 
12 132 
12 134 
12 136 
12 137 
12 139 
12 141 
12 144 
12 145 
12 147 
12 150 
12 152 
12 154 
12 156 
12 157 
12 159 
12 162 
12 163 
12 166 
12 167 
12 170 
12 171 
12 173 
12 176 
13 14 
13 89 
13 92 
13 93 
13 95 
13 97 
13 100 
13 102 
13 104 
13 105 
13 108 
13 110 
13 111 
13 113 
13 116 
13 117 
13 119 
13 122 
13 123 
13 126 
13 127 
13 130 
13 132 
13 133 
13 135 
13 137 
13 139 
13 141 
13 144 
13 146 
13 148 
13 150 
13 151 
13 153 
13 156 
13 158 
13 160 
13 161 
13 163 
13 165 
13 168 
13 170 
13 172 
13 173 
13 175 
14 90 
14 91 
14 94 
14 96 
14 98 
14 99 
14 101 
14 103 
14 106 
14 107 
14 109 
14 112 
14 114 
14 115 
14 118 
14 120 
14 121 
14 124 
14 125 
14 128 
14 129 
14 131 
14 134 
14 136 
14 138 
14 140 
14 142 
14 143 
14 145 
14 147 
14 149 
14 152 
14 154 
14 155 
14 157 
14 159 
14 162 
14 164 
14 166 
14 167 
14 169 
14 171 
14 174 
14 176 
15 16 
15 90 
15 91 
15 94 
15 95 
15 98 
15 99 
15 101 
15 104 
15 105 
15 107 
15 109 
15 111 
15 114 
15 115 
15 117 
15 119 
15 121 
15 123 
15 125 
15 128 
15 130 
15 132 
15 133 
15 135 
15 137 
15 139 
15 141 
15 144 
15 145 
15 148 
15 149 
15 152 
15 153 
15 155 
15 157 
15 159 
15 161 
15 163 
15 165 
15 167 
15 170 
15 171 
15 174 
15 175 
16 89 
16 92 
16 93 
16 96 
16 97 
16 100 
16 102 
16 103 
16 106 
16 108 
16 110 
16 112 
16 113 
16 116 
16 118 
16 120 
16 122 
16 124 
16 126 
16 127 
16 129 
16 131 
16 134 
16 136 
16 138 
16 140 
16 142 
16 143 
16 146 
16 147 
16 150 
16 151 
16 154 
16 156 
16 158 
16 160 
16 162 
16 164 
16 166 
16 168 
16 169 
16 172 
16 173 
16 176 
17 18 
17 89 
17 91 
17 93 
17 96 
17 97 
17 99 
17 102 
17 104 
17 106 
17 107 
17 109 
17 111 
17 114 
17 116 
17 117 
17 120 
17 122 
17 123 
17 126 
17 128 
17 129 
17 132 
17 134 
17 135 
17 138 
17 139 
17 142 
17 144 
17 146 
17 147 
17 149 
17 152 
17 153 
17 155 
17 158 
17 160 
17 162 
17 163 
17 165 
17 167 
17 169 
17 171 
17 173 
17 176 
18 90 
18 92 
18 94 
18 95 
18 98 
18 100 
18 101 
18 103 
18 105 
18 108 
18 110 
18 112 
18 113 
18 115 
18 118 
18 119 
18 121 
18 124 
18 125 
18 127 
18 130 
18 131 
18 133 
18 136 
18 137 
18 140 
18 141 
18 143 
18 145 
18 148 
18 150 
18 151 
18 154 
18 156 
18 157 
18 159 
18 161 
18 164 
18 166 
18 168 
18 170 
18 172 
18 174 
18 175 
19 20 
19 90 
19 92 
19 93 
19 96 
19 97 
19 100 
19 101 
19 103 
19 106 
19 107 
19 110 
19 112 
19 114 
19 116 
19 118 
19 119 
19 121 
19 124 
19 125 
19 128 
19 129 
19 132 
19 133 
19 135 
19 138 
19 139 
19 141 
19 143 
19 146 
19 148 
19 149 
19 151 
19 153 
19 155 
19 158 
19 159 
19 161 
19 163 
19 166 
19 168 
19 170 
19 171 
19 173 
19 176 
20 89 
20 91 
20 94 
20 95 
20 98 
20 99 
20 102 
20 104 
20 105 
20 108 
20 109 
20 111 
20 113 
20 115 
20 117 
20 120 
20 122 
20 123 
20 126 
20 127 
20 130 
20 131 
20 134 
20 136 
20 137 
20 140 
20 142 
20 144 
20 145 
20 147 
20 150 
20 152 
20 154 
20 156 
20 157 
20 160 
20 162 
20 164 
20 165 
20 167 
20 169 
20 172 
20 174 
20 175 
21 22 
21 90 
21 92 
21 94 
21 95 
21 97 
21 99 
21 102 
21 104 
21 106 
21 107 
21 110 
21 112 
21 113 
21 116 
21 118 
21 119 
21 122 
21 123 
21 126 
21 128 
21 130 
21 132 
21 133 
21 136 
21 138 
21 140 
21 142 
21 143 
21 145 
21 147 
21 150 
21 151 
21 153 
21 155 
21 157 
21 160 
21 161 
21 163 
21 166 
21 167 
21 169 
21 171 
21 174 
21 175 
22 89 
22 91 
22 93 
22 96 
22 98 
22 100 
22 101 
22 103 
22 105 
22 108 
22 109 
22 111 
22 114 
22 115 
22 117 
22 120 
22 121 
22 124 
22 125 
22 127 
22 129 
22 131 
22 134 
22 135 
22 137 
22 139 
22 141 
22 144 
22 146 
22 148 
22 149 
22 152 
22 154 
22 156 
22 158 
22 159 
22 162 
22 164 
22 165 
22 168 
22 170 
22 172 
22 173 
22 176 
23 24 
23 90 
23 92 
23 93 
23 95 
23 97 
23 99 
23 102 
23 103 
23 106 
23 108 
23 110 
23 111 
23 114 
23 116 
23 117 
23 119 
23 121 
23 123 
23 125 
23 127 
23 130 
23 131 
23 134 
23 136 
23 137 
23 139 
23 141 
23 144 
23 145 
23 148 
23 149 
23 151 
23 154 
23 155 
23 158 
23 160 
23 162 
23 164 
23 166 
23 167 
23 169 
23 171 
23 174 
23 176 
24 89 
24 91 
24 94 
24 96 
24 98 
24 100 
24 101 
24 104 
24 105 
24 107 
24 109 
24 112 
24 113 
24 115 
24 118 
24 120 
24 122 
24 124 
24 126 
24 128 
24 129 
24 132 
24 133 
24 135 
24 138 
24 140 
24 142 
24 143 
24 146 
24 147 
24 150 
24 152 
24 153 
24 156 
24 157 
24 159 
24 161 
24 163 
24 165 
24 168 
24 170 
24 172 
24 173 
24 175 
25 26 
25 89 
25 91 
25 94 
25 95 
25 97 
25 100 
25 102 
25 103 
25 106 
25 108 
25 109 
25 111 
25 113 
25 116 
25 117 
25 120 
25 121 
25 124 
25 125 
25 128 
25 130 
25 132 
25 133 
25 136 
25 138 
25 139 
25 141 
25 143 
25 146 
25 147 
25 149 
25 152 
25 154 
25 155 
25 157 
25 160 
25 162 
25 163 
25 166 
25 168 
25 170 
25 172 
25 174 
25 175 
26 90 
26 92 
26 93 
26 96 
26 98 
26 99 
26 101 
26 104 
26 105 
26 107 
26 110 
26 112 
26 114 
26 115 
26 118 
26 119 
26 122 
26 123 
26 126 
26 127 
26 129 
26 131 
26 134 
26 135 
26 137 
26 140 
26 142 
26 144 
26 145 
26 148 
26 150 
26 151 
26 153 
26 156 
26 158 
26 159 
26 161 
26 164 
26 165 
26 167 
26 169 
26 171 
26 173 
26 176 
27 28 
27 90 
27 92 
27 93 
27 96 
27 98 
27 100 
27 101 
27 104 
27 106 
27 107 
27 110 
27 112 
27 114 
27 116 
27 117 
27 120 
27 122 
27 124 
27 126 
27 128 
27 130 
27 132 
27 134 
27 136 
27 137 
27 139 
27 142 
27 144 
27 146 
27 148 
27 149 
27 152 
27 154 
27 156 
27 157 
27 160 
27 161 
27 164 
27 166 
27 167 
27 170 
27 172 
27 174 
27 175 
28 89 
28 91 
28 94 
28 95 
28 97 
28 99 
28 102 
28 103 
28 105 
28 108 
28 109 
28 111 
28 113 
28 115 
28 118 
28 119 
28 121 
28 123 
28 125 
28 127 
28 129 
28 131 
28 133 
28 135 
28 138 
28 140 
28 141 
28 143 
28 145 
28 147 
28 150 
28 151 
28 153 
28 155 
28 158 
28 159 
28 162 
28 163 
28 165 
28 168 
28 169 
28 171 
28 173 
28 176 
29 30 
29 90 
29 92 
29 94 
29 95 
29 98 
29 100 
29 102 
29 104 
29 105 
29 108 
29 110 
29 111 
29 114 
29 116 
29 118 
29 120 
29 122 
29 123 
29 125 
29 128 
29 129 
29 132 
29 133 
29 136 
29 138 
29 140 
29 142 
29 144 
29 146 
29 148 
29 150 
29 152 
29 154 
29 155 
29 158 
29 159 
29 162 
29 164 
29 165 
29 168 
29 170 
29 171 
29 174 
29 176 
30 89 
30 91 
30 93 
30 96 
30 97 
30 99 
30 101 
30 103 
30 106 
30 107 
30 109 
30 112 
30 113 
30 115 
30 117 
30 119 
30 121 
30 124 
30 126 
30 127 
30 130 
30 131 
30 134 
30 135 
30 137 
30 139 
30 141 
30 143 
30 145 
30 147 
30 149 
30 151 
30 153 
30 156 
30 157 
30 160 
30 161 
30 163 
30 166 
30 167 
30 169 
30 172 
30 173 
30 175 
31 32 
31 89 
31 92 
31 94 
31 95 
31 98 
31 100 
31 102 
31 103 
31 106 
31 108 
31 109 
31 112 
31 113 
31 116 
31 117 
31 120 
31 122 
31 123 
31 125 
31 128 
31 130 
31 131 
31 134 
31 135 
31 137 
31 140 
31 142 
31 143 
31 145 
31 148 
31 149 
31 152 
31 153 
31 156 
31 158 
31 159 
31 161 
31 163 
31 166 
31 167 
31 170 
31 171 
31 173 
31 176 
32 90 
32 91 
32 93 
32 96 
32 97 
32 99 
32 101 
32 104 
32 105 
32 107 
32 110 
32 111 
32 114 
32 115 
32 118 
32 119 
32 121 
32 124 
32 126 
32 127 
32 129 
32 132 
32 133 
32 136 
32 138 
32 139 
32 141 
32 144 
32 146 
32 147 
32 150 
32 151 
32 154 
32 155 
32 157 
32 160 
32 162 
32 164 
32 165 
32 168 
32 169 
32 172 
32 174 
32 175 
33 34 
33 90 
33 92 
33 94 
33 96 
33 97 
33 100 
33 102 
33 104 
33 105 
33 107 
33 109 
33 111 
33 114 
33 116 
33 118 
33 120 
33 121 
33 124 
33 125 
33 128 
33 130 
33 131 
33 134 
33 136 
33 137 
33 139 
33 141 
33 143 
33 145 
33 147 
33 150 
33 152 
33 153 
33 156 
33 158 
33 160 
33 161 
33 164 
33 165 
33 168 
33 169 
33 171 
33 173 
33 175 
34 89 
34 91 
34 93 
34 95 
34 98 
34 99 
34 101 
34 103 
34 106 
34 108 
34 110 
34 112 
34 113 
34 115 
34 117 
34 119 
34 122 
34 123 
34 126 
34 127 
34 129 
34 132 
34 133 
34 135 
34 138 
34 140 
34 142 
34 144 
34 146 
34 148 
34 149 
34 151 
34 154 
34 155 
34 157 
34 159 
34 162 
34 163 
34 166 
34 167 
34 170 
34 172 
34 174 
34 176 
35 36 
35 90 
35 91 
35 93 
35 96 
35 98 
35 100 
35 102 
35 103 
35 105 
35 108 
35 110 
35 111 
35 113 
35 116 
35 118 
35 119 
35 121 
35 124 
35 126 
35 127 
35 130 
35 132 
35 134 
35 136 
35 137 
35 140 
35 142 
35 143 
35 146 
35 148 
35 149 
35 152 
35 153 
35 155 
35 157 
35 159 
35 162 
35 163 
35 165 
35 167 
35 169 
35 171 
35 173 
35 175 
36 89 
36 92 
36 94 
36 95 
36 97 
36 99 
36 101 
36 104 
36 106 
36 107 
36 109 
36 112 
36 114 
36 115 
36 117 
36 120 
36 122 
36 123 
36 125 
36 128 
36 129 
36 131 
36 133 
36 135 
36 138 
36 139 
36 141 
36 144 
36 145 
36 147 
36 150 
36 151 
36 154 
36 156 
36 158 
36 160 
36 161 
36 164 
36 166 
36 168 
36 170 
36 172 
36 174 
36 176 
37 38 
37 89 
37 92 
37 93 
37 96 
37 98 
37 99 
37 101 
37 104 
37 106 
37 108 
37 110 
37 111 
37 113 
37 115 
37 118 
37 119 
37 122 
37 124 
37 125 
37 128 
37 130 
37 131 
37 133 
37 135 
37 138 
37 139 
37 142 
37 143 
37 145 
37 148 
37 149 
37 152 
37 154 
37 156 
37 158 
37 160 
37 162 
37 163 
37 165 
37 168 
37 169 
37 171 
37 174 
37 175 
38 90 
38 91 
38 94 
38 95 
38 97 
38 100 
38 102 
38 103 
38 105 
38 107 
38 109 
38 112 
38 114 
38 116 
38 117 
38 120 
38 121 
38 123 
38 126 
38 127 
38 129 
38 132 
38 134 
38 136 
38 137 
38 140 
38 141 
38 144 
38 146 
38 147 
38 150 
38 151 
38 153 
38 155 
38 157 
38 159 
38 161 
38 164 
38 166 
38 167 
38 170 
38 172 
38 173 
38 176 
39 40 
39 89 
39 91 
39 94 
39 95 
39 97 
39 99 
39 101 
39 103 
39 105 
39 108 
39 110 
39 112 
39 114 
39 116 
39 118 
39 119 
39 121 
39 123 
39 125 
39 128 
39 130 
39 132 
39 134 
39 135 
39 138 
39 139 
39 142 
39 143 
39 146 
39 148 
39 150 
39 152 
39 154 
39 156 
39 157 
39 160 
39 161 
39 164 
39 165 
39 167 
39 169 
39 172 
39 173 
39 176 
40 90 
40 92 
40 93 
40 96 
40 98 
40 100 
40 102 
40 104 
40 106 
40 107 
40 109 
40 111 
40 113 
40 115 
40 117 
40 120 
40 122 
40 124 
40 126 
40 127 
40 129 
40 131 
40 133 
40 136 
40 137 
40 140 
40 141 
40 144 
40 145 
40 147 
40 149 
40 151 
40 153 
40 155 
40 158 
40 159 
40 162 
40 163 
40 166 
40 168 
40 170 
40 171 
40 174 
40 175 
41 42 
41 90 
41 91 
41 94 
41 96 
41 98 
41 99 
41 102 
41 104 
41 106 
41 108 
41 109 
41 112 
41 114 
41 116 
41 118 
41 119 
41 121 
41 124 
41 126 
41 127 
41 130 
41 132 
41 134 
41 135 
41 138 
41 140 
41 141 
41 144 
41 145 
41 148 
41 150 
41 152 
41 153 
41 156 
41 158 
41 160 
41 162 
41 163 
41 166 
41 168 
41 170 
41 172 
41 174 
41 176 
42 89 
42 92 
42 93 
42 95 
42 97 
42 100 
42 101 
42 103 
42 105 
42 107 
42 110 
42 111 
42 113 
42 115 
42 117 
42 120 
42 122 
42 123 
42 125 
42 128 
42 129 
42 131 
42 133 
42 136 
42 137 
42 139 
42 142 
42 143 
42 146 
42 147 
42 149 
42 151 
42 154 
42 155 
42 157 
42 159 
42 161 
42 164 
42 165 
42 167 
42 169 
42 171 
42 173 
42 175 
43 44 
43 89 
43 92 
43 94 
43 96 
43 97 
43 99 
43 101 
43 104 
43 105 
43 107 
43 110 
43 111 
43 113 
43 116 
43 117 
43 120 
43 121 
43 124 
43 125 
43 128 
43 130 
43 131 
43 134 
43 135 
43 137 
43 140 
43 142 
43 144 
43 146 
43 148 
43 150 
43 151 
43 153 
43 155 
43 157 
43 159 
43 162 
43 163 
43 166 
43 168 
43 169 
43 172 
43 174 
43 176 
44 90 
44 91 
44 93 
44 95 
44 98 
44 100 
44 102 
44 103 
44 106 
44 108 
44 109 
44 112 
44 114 
44 115 
44 118 
44 119 
44 122 
44 123 
44 126 
44 127 
44 129 
44 132 
44 133 
44 136 
44 138 
44 139 
44 141 
44 143 
44 145 
44 147 
44 149 
44 152 
44 154 
44 156 
44 158 
44 160 
44 161 
44 164 
44 165 
44 167 
44 170 
44 171 
44 173 
44 175 
45 46 
45 89 
45 91 
45 93 
45 96 
45 98 
45 99 
45 102 
45 103 
45 106 
45 107 
45 110 
45 111 
45 114 
45 116 
45 117 
45 119 
45 121 
45 123 
45 125 
45 128 
45 129 
45 132 
45 134 
45 136 
45 137 
45 140 
45 142 
45 143 
45 145 
45 147 
45 150 
45 151 
45 154 
45 156 
45 158 
45 159 
45 161 
45 163 
45 165 
45 168 
45 170 
45 172 
45 174 
45 175 
46 90 
46 92 
46 94 
46 95 
46 97 
46 100 
46 101 
46 104 
46 105 
46 108 
46 109 
46 112 
46 113 
46 115 
46 118 
46 120 
46 122 
46 124 
46 126 
46 127 
46 130 
46 131 
46 133 
46 135 
46 138 
46 139 
46 141 
46 144 
46 146 
46 148 
46 149 
46 152 
46 153 
46 155 
46 157 
46 160 
46 162 
46 164 
46 166 
46 167 
46 169 
46 171 
46 173 
46 176 
47 48 
47 89 
47 92 
47 93 
47 95 
47 97 
47 100 
47 101 
47 104 
47 105 
47 107 
47 110 
47 112 
47 114 
47 116 
47 118 
47 120 
47 121 
47 123 
47 126 
47 127 
47 130 
47 131 
47 134 
47 135 
47 138 
47 140 
47 141 
47 143 
47 145 
47 147 
47 149 
47 152 
47 154 
47 155 
47 158 
47 159 
47 162 
47 163 
47 165 
47 167 
47 170 
47 172 
47 174 
47 175 
48 90 
48 91 
48 94 
48 96 
48 98 
48 99 
48 102 
48 103 
48 106 
48 108 
48 109 
48 111 
48 113 
48 115 
48 117 
48 119 
48 122 
48 124 
48 125 
48 128 
48 129 
48 132 
48 133 
48 136 
48 137 
48 139 
48 142 
48 144 
48 146 
48 148 
48 150 
48 151 
48 153 
48 156 
48 157 
48 160 
48 161 
48 164 
48 166 
48 168 
48 169 
48 171 
48 173 
48 176 
49 50 
49 89 
49 92 
49 93 
49 95 
49 98 
49 99 
49 101 
49 104 
49 106 
49 107 
49 109 
49 111 
49 114 
49 116 
49 118 
49 119 
49 122 
49 123 
49 125 
49 127 
49 130 
49 132 
49 133 
49 136 
49 137 
49 140 
49 141 
49 143 
49 146 
49 147 
49 149 
49 152 
49 153 
49 156 
49 157 
49 159 
49 162 
49 164 
49 166 
49 168 
49 169 
49 172 
49 173 
49 176 
50 90 
50 91 
50 94 
50 96 
50 97 
50 100 
50 102 
50 103 
50 105 
50 108 
50 110 
50 112 
50 113 
50 115 
50 117 
50 120 
50 121 
50 124 
50 126 
50 128 
50 129 
50 131 
50 134 
50 135 
50 138 
50 139 
50 142 
50 144 
50 145 
50 148 
50 150 
50 151 
50 154 
50 155 
50 158 
50 160 
50 161 
50 163 
50 165 
50 167 
50 170 
50 171 
50 174 
50 175 
51 52 
51 90 
51 92 
51 94 
51 96 
51 98 
51 99 
51 102 
51 103 
51 105 
51 107 
51 109 
51 111 
51 113 
51 116 
51 118 
51 119 
51 121 
51 123 
51 126 
51 128 
51 130 
51 131 
51 133 
51 135 
51 138 
51 139 
51 142 
51 144 
51 146 
51 147 
51 149 
51 151 
51 154 
51 156 
51 158 
51 159 
51 162 
51 164 
51 166 
51 167 
51 170 
51 172 
51 173 
51 175 
52 89 
52 91 
52 93 
52 95 
52 97 
52 100 
52 101 
52 104 
52 106 
52 108 
52 110 
52 112 
52 114 
52 115 
52 117 
52 120 
52 122 
52 124 
52 125 
52 127 
52 129 
52 132 
52 134 
52 136 
52 137 
52 140 
52 141 
52 143 
52 145 
52 148 
52 150 
52 152 
52 153 
52 155 
52 157 
52 160 
52 161 
52 163 
52 165 
52 168 
52 169 
52 171 
52 174 
52 176 
53 54 
53 90 
53 92 
53 93 
53 95 
53 98 
53 99 
53 101 
53 104 
53 106 
53 108 
53 109 
53 111 
53 113 
53 116 
53 117 
53 120 
53 121 
53 124 
53 126 
53 127 
53 130 
53 132 
53 134 
53 135 
53 138 
53 139 
53 142 
53 143 
53 145 
53 147 
53 150 
53 151 
53 154 
53 155 
53 157 
53 159 
53 161 
53 164 
53 165 
53 168 
53 170 
53 171 
53 173 
53 176 
54 89 
54 91 
54 94 
54 96 
54 97 
54 100 
54 102 
54 103 
54 105 
54 107 
54 110 
54 112 
54 114 
54 115 
54 118 
54 119 
54 122 
54 123 
54 125 
54 128 
54 129 
54 131 
54 133 
54 136 
54 137 
54 140 
54 141 
54 144 
54 146 
54 148 
54 149 
54 152 
54 153 
54 156 
54 158 
54 160 
54 162 
54 163 
54 166 
54 167 
54 169 
54 172 
54 174 
54 175 
55 56 
55 90 
55 91 
55 93 
55 95 
55 97 
55 100 
55 101 
55 104 
55 106 
55 108 
55 109 
55 112 
55 113 
55 116 
55 118 
55 119 
55 121 
55 123 
55 125 
55 128 
55 129 
55 131 
55 134 
55 135 
55 137 
55 140 
55 142 
55 144 
55 146 
55 147 
55 149 
55 151 
55 153 
55 156 
55 157 
55 160 
55 162 
55 164 
55 165 
55 168 
55 170 
55 171 
55 174 
55 175 
56 89 
56 92 
56 94 
56 96 
56 98 
56 99 
56 102 
56 103 
56 105 
56 107 
56 110 
56 111 
56 114 
56 115 
56 117 
56 120 
56 122 
56 124 
56 126 
56 127 
56 130 
56 132 
56 133 
56 136 
56 138 
56 139 
56 141 
56 143 
56 145 
56 148 
56 150 
56 152 
56 154 
56 155 
56 158 
56 159 
56 161 
56 163 
56 166 
56 167 
56 169 
56 172 
56 173 
56 176 
57 58 
57 89 
57 91 
57 93 
57 96 
57 97 
57 100 
57 102 
57 104 
57 105 
57 108 
57 109 
57 111 
57 114 
57 115 
57 118 
57 119 
57 122 
57 123 
57 126 
57 128 
57 130 
57 131 
57 134 
57 136 
57 138 
57 139 
57 142 
57 143 
57 145 
57 148 
57 149 
57 151 
57 153 
57 155 
57 157 
57 159 
57 161 
57 164 
57 166 
57 168 
57 170 
57 172 
57 174 
57 176 
58 90 
58 92 
58 94 
58 95 
58 98 
58 99 
58 101 
58 103 
58 106 
58 107 
58 110 
58 112 
58 113 
58 116 
58 117 
58 120 
58 121 
58 124 
58 125 
58 127 
58 129 
58 132 
58 133 
58 135 
58 137 
58 140 
58 141 
58 144 
58 146 
58 147 
58 150 
58 152 
58 154 
58 156 
58 158 
58 160 
58 162 
58 163 
58 165 
58 167 
58 169 
58 171 
58 173 
58 175 
59 60 
59 90 
59 91 
59 93 
59 95 
59 98 
59 100 
59 101 
59 104 
59 105 
59 107 
59 109 
59 112 
59 113 
59 116 
59 117 
59 119 
59 121 
59 123 
59 126 
59 128 
59 129 
59 131 
59 133 
59 136 
59 137 
59 139 
59 142 
59 143 
59 145 
59 148 
59 150 
59 152 
59 154 
59 155 
59 158 
59 160 
59 162 
59 163 
59 166 
59 168 
59 169 
59 172 
59 173 
59 176 
60 89 
60 92 
60 94 
60 96 
60 97 
60 99 
60 102 
60 103 
60 106 
60 108 
60 110 
60 111 
60 114 
60 115 
60 118 
60 120 
60 122 
60 124 
60 125 
60 127 
60 130 
60 132 
60 134 
60 135 
60 138 
60 140 
60 141 
60 144 
60 146 
60 147 
60 149 
60 151 
60 153 
60 156 
60 157 
60 159 
60 161 
60 164 
60 165 
60 167 
60 170 
60 171 
60 174 
60 175 
61 62 
61 89 
61 92 
61 93 
61 95 
61 97 
61 99 
61 102 
61 103 
61 105 
61 107 
61 109 
61 112 
61 114 
61 115 
61 118 
61 120 
61 121 
61 124 
61 126 
61 128 
61 130 
61 132 
61 133 
61 136 
61 137 
61 140 
61 142 
61 144 
61 145 
61 148 
61 149 
61 151 
61 154 
61 156 
61 157 
61 160 
61 162 
61 163 
61 165 
61 168 
61 170 
61 171 
61 173 
61 176 
62 90 
62 91 
62 94 
62 96 
62 98 
62 100 
62 101 
62 104 
62 106 
62 108 
62 110 
62 111 
62 113 
62 116 
62 117 
62 119 
62 122 
62 123 
62 125 
62 127 
62 129 
62 131 
62 134 
62 135 
62 138 
62 139 
62 141 
62 143 
62 146 
62 147 
62 150 
62 152 
62 153 
62 155 
62 158 
62 159 
62 161 
62 164 
62 166 
62 167 
62 169 
62 172 
62 174 
62 175 
63 64 
63 89 
63 92 
63 93 
63 95 
63 98 
63 99 
63 102 
63 103 
63 105 
63 108 
63 109 
63 112 
63 114 
63 116 
63 118 
63 119 
63 122 
63 124 
63 126 
63 128 
63 129 
63 131 
63 134 
63 135 
63 137 
63 139 
63 141 
63 144 
63 146 
63 147 
63 150 
63 152 
63 154 
63 155 
63 157 
63 159 
63 161 
63 163 
63 166 
63 168 
63 169 
63 171 
63 174 
63 175 
64 90 
64 91 
64 94 
64 96 
64 97 
64 100 
64 101 
64 104 
64 106 
64 107 
64 110 
64 111 
64 113 
64 115 
64 117 
64 120 
64 121 
64 123 
64 125 
64 127 
64 130 
64 132 
64 133 
64 136 
64 138 
64 140 
64 142 
64 143 
64 145 
64 148 
64 149 
64 151 
64 153 
64 156 
64 158 
64 160 
64 162 
64 164 
64 165 
64 167 
64 170 
64 172 
64 173 
64 176 
65 66 
65 89 
65 92 
65 93 
65 96 
65 98 
65 99 
65 102 
65 104 
65 105 
65 108 
65 110 
65 112 
65 113 
65 116 
65 117 
65 119 
65 121 
65 124 
65 125 
65 128 
65 129 
65 131 
65 133 
65 136 
65 138 
65 140 
65 141 
65 144 
65 145 
65 147 
65 149 
65 152 
65 153 
65 155 
65 157 
65 160 
65 161 
65 164 
65 165 
65 167 
65 170 
65 172 
65 173 
65 176 
66 90 
66 91 
66 94 
66 95 
66 97 
66 100 
66 101 
66 103 
66 106 
66 107 
66 109 
66 111 
66 114 
66 115 
66 118 
66 120 
66 122 
66 123 
66 126 
66 127 
66 130 
66 132 
66 134 
66 135 
66 137 
66 139 
66 142 
66 143 
66 146 
66 148 
66 150 
66 151 
66 154 
66 156 
66 158 
66 159 
66 162 
66 163 
66 166 
66 168 
66 169 
66 171 
66 174 
66 175 
67 68 
67 89 
67 91 
67 93 
67 95 
67 98 
67 100 
67 102 
67 104 
67 106 
67 108 
67 110 
67 112 
67 114 
67 115 
67 118 
67 120 
67 121 
67 124 
67 125 
67 128 
67 130 
67 132 
67 133 
67 135 
67 137 
67 139 
67 142 
67 144 
67 145 
67 147 
67 150 
67 151 
67 153 
67 155 
67 158 
67 159 
67 162 
67 164 
67 166 
67 167 
67 169 
67 172 
67 173 
67 175 
68 90 
68 92 
68 94 
68 96 
68 97 
68 99 
68 101 
68 103 
68 105 
68 107 
68 109 
68 111 
68 113 
68 116 
68 117 
68 119 
68 122 
68 123 
68 126 
68 127 
68 129 
68 131 
68 134 
68 136 
68 138 
68 140 
68 141 
68 143 
68 146 
68 148 
68 149 
68 152 
68 154 
68 156 
68 157 
68 160 
68 161 
68 163 
68 165 
68 168 
68 170 
68 171 
68 174 
68 176 
69 70 
69 89 
69 91 
69 94 
69 95 
69 98 
69 100 
69 101 
69 103 
69 105 
69 107 
69 110 
69 112 
69 113 
69 116 
69 117 
69 119 
69 122 
69 124 
69 126 
69 128 
69 130 
69 132 
69 134 
69 136 
69 138 
69 139 
69 141 
69 144 
69 145 
69 147 
69 149 
69 151 
69 153 
69 156 
69 158 
69 159 
69 162 
69 164 
69 165 
69 168 
69 169 
69 171 
69 174 
69 176 
70 90 
70 92 
70 93 
70 96 
70 97 
70 99 
70 102 
70 104 
70 106 
70 108 
70 109 
70 111 
70 114 
70 115 
70 118 
70 120 
70 121 
70 123 
70 125 
70 127 
70 129 
70 131 
70 133 
70 135 
70 137 
70 140 
70 142 
70 143 
70 146 
70 148 
70 150 
70 152 
70 154 
70 155 
70 157 
70 160 
70 161 
70 163 
70 166 
70 167 
70 170 
70 172 
70 173 
70 175 
71 72 
71 90 
71 91 
71 94 
71 96 
71 98 
71 100 
71 101 
71 103 
71 106 
71 108 
71 110 
71 111 
71 114 
71 116 
71 118 
71 120 
71 122 
71 123 
71 126 
71 128 
71 130 
71 131 
71 133 
71 135 
71 137 
71 140 
71 141 
71 144 
71 145 
71 147 
71 149 
71 151 
71 154 
71 155 
71 157 
71 160 
71 161 
71 163 
71 165 
71 168 
71 169 
71 172 
71 173 
71 176 
72 89 
72 92 
72 93 
72 95 
72 97 
72 99 
72 102 
72 104 
72 105 
72 107 
72 109 
72 112 
72 113 
72 115 
72 117 
72 119 
72 121 
72 124 
72 125 
72 127 
72 129 
72 132 
72 134 
72 136 
72 138 
72 139 
72 142 
72 143 
72 146 
72 148 
72 150 
72 152 
72 153 
72 156 
72 158 
72 159 
72 162 
72 164 
72 166 
72 167 
72 170 
72 171 
72 174 
72 175 
73 74 
73 89 
73 92 
73 93 
73 96 
73 98 
73 100 
73 101 
73 103 
73 105 
73 108 
73 109 
73 111 
73 114 
73 116 
73 117 
73 120 
73 121 
73 123 
73 126 
73 128 
73 129 
73 132 
73 133 
73 135 
73 138 
73 140 
73 141 
73 143 
73 145 
73 148 
73 150 
73 151 
73 153 
73 156 
73 157 
73 160 
73 162 
73 164 
73 166 
73 167 
73 169 
73 171 
73 174 
73 175 
74 90 
74 91 
74 94 
74 95 
74 97 
74 99 
74 102 
74 104 
74 106 
74 107 
74 110 
74 112 
74 113 
74 115 
74 118 
74 119 
74 122 
74 124 
74 125 
74 127 
74 130 
74 131 
74 134 
74 136 
74 137 
74 139 
74 142 
74 144 
74 146 
74 147 
74 149 
74 152 
74 154 
74 155 
74 158 
74 159 
74 161 
74 163 
74 165 
74 168 
74 170 
74 172 
74 173 
74 176 
75 76 
75 89 
75 91 
75 93 
75 96 
75 98 
75 100 
75 102 
75 104 
75 106 
75 107 
75 109 
75 112 
75 113 
75 116 
75 118 
75 120 
75 121 
75 123 
75 125 
75 127 
75 130 
75 131 
75 133 
75 136 
75 138 
75 139 
75 141 
75 144 
75 146 
75 148 
75 150 
75 151 
75 154 
75 156 
75 157 
75 159 
75 161 
75 163 
75 165 
75 167 
75 169 
75 171 
75 174 
75 176 
76 90 
76 92 
76 94 
76 95 
76 97 
76 99 
76 101 
76 103 
76 105 
76 108 
76 110 
76 111 
76 114 
76 115 
76 117 
76 119 
76 122 
76 124 
76 126 
76 128 
76 129 
76 132 
76 134 
76 135 
76 137 
76 140 
76 142 
76 143 
76 145 
76 147 
76 149 
76 152 
76 153 
76 155 
76 158 
76 160 
76 162 
76 164 
76 166 
76 168 
76 170 
76 172 
76 173 
76 175 
77 78 
77 90 
77 91 
77 93 
77 96 
77 97 
77 99 
77 101 
77 103 
77 105 
77 108 
77 110 
77 112 
77 114 
77 116 
77 117 
77 120 
77 122 
77 123 
77 125 
77 127 
77 130 
77 131 
77 133 
77 136 
77 138 
77 139 
77 142 
77 144 
77 145 
77 147 
77 150 
77 152 
77 153 
77 156 
77 157 
77 159 
77 162 
77 163 
77 166 
77 168 
77 170 
77 171 
77 173 
77 175 
78 89 
78 92 
78 94 
78 95 
78 98 
78 100 
78 102 
78 104 
78 106 
78 107 
78 109 
78 111 
78 113 
78 115 
78 118 
78 119 
78 121 
78 124 
78 126 
78 128 
78 129 
78 132 
78 134 
78 135 
78 137 
78 140 
78 141 
78 143 
78 146 
78 148 
78 149 
78 151 
78 154 
78 155 
78 158 
78 160 
78 161 
78 164 
78 165 
78 167 
78 169 
78 172 
78 174 
78 176 
79 80 
79 89 
79 91 
79 94 
79 96 
79 97 
79 99 
79 101 
79 104 
79 106 
79 108 
79 109 
79 112 
79 114 
79 116 
79 117 
79 119 
79 122 
79 124 
79 126 
79 128 
79 130 
79 131 
79 133 
79 136 
79 137 
79 140 
79 141 
79 143 
79 146 
79 148 
79 150 
79 151 
79 154 
79 155 
79 158 
79 159 
79 162 
79 164 
79 165 
79 167 
79 170 
79 171 
79 173 
79 175 
80 90 
80 92 
80 93 
80 95 
80 98 
80 100 
80 102 
80 103 
80 105 
80 107 
80 110 
80 111 
80 113 
80 115 
80 118 
80 120 
80 121 
80 123 
80 125 
80 127 
80 129 
80 132 
80 134 
80 135 
80 138 
80 139 
80 142 
80 144 
80 145 
80 147 
80 149 
80 152 
80 153 
80 156 
80 157 
80 160 
80 161 
80 163 
80 166 
80 168 
80 169 
80 172 
80 174 
80 176 
81 82 
81 90 
81 91 
81 93 
81 95 
81 97 
81 99 
81 101 
81 104 
81 105 
81 108 
81 109 
81 111 
81 113 
81 116 
81 118 
81 120 
81 122 
81 124 
81 125 
81 128 
81 129 
81 132 
81 134 
81 136 
81 138 
81 140 
81 141 
81 144 
81 145 
81 148 
81 149 
81 151 
81 154 
81 156 
81 158 
81 159 
81 161 
81 163 
81 166 
81 167 
81 169 
81 172 
81 173 
81 175 
82 89 
82 92 
82 94 
82 96 
82 98 
82 100 
82 102 
82 103 
82 106 
82 107 
82 110 
82 112 
82 114 
82 115 
82 117 
82 119 
82 121 
82 123 
82 126 
82 127 
82 130 
82 131 
82 133 
82 135 
82 137 
82 139 
82 142 
82 143 
82 146 
82 147 
82 150 
82 152 
82 153 
82 155 
82 157 
82 160 
82 162 
82 164 
82 165 
82 168 
82 170 
82 171 
82 174 
82 176 
83 84 
83 89 
83 91 
83 93 
83 96 
83 97 
83 100 
83 101 
83 103 
83 105 
83 107 
83 109 
83 111 
83 113 
83 116 
83 118 
83 119 
83 122 
83 124 
83 125 
83 127 
83 130 
83 132 
83 133 
83 135 
83 137 
83 140 
83 142 
83 144 
83 145 
83 147 
83 150 
83 152 
83 154 
83 155 
83 158 
83 160 
83 161 
83 164 
83 166 
83 167 
83 170 
83 171 
83 174 
83 176 
84 90 
84 92 
84 94 
84 95 
84 98 
84 99 
84 102 
84 104 
84 106 
84 108 
84 110 
84 112 
84 114 
84 115 
84 117 
84 120 
84 121 
84 123 
84 126 
84 128 
84 129 
84 131 
84 134 
84 136 
84 138 
84 139 
84 141 
84 143 
84 146 
84 148 
84 149 
84 151 
84 153 
84 156 
84 157 
84 159 
84 162 
84 163 
84 165 
84 168 
84 169 
84 172 
84 173 
84 175 
85 86 
85 90 
85 92 
85 93 
85 95 
85 97 
85 100 
85 101 
85 103 
85 106 
85 108 
85 109 
85 111 
85 114 
85 115 
85 117 
85 119 
85 121 
85 124 
85 126 
85 128 
85 130 
85 131 
85 133 
85 136 
85 138 
85 140 
85 142 
85 144 
85 146 
85 147 
85 150 
85 152 
85 153 
85 156 
85 158 
85 159 
85 161 
85 163 
85 165 
85 167 
85 169 
85 172 
85 174 
85 176 
86 89 
86 91 
86 94 
86 96 
86 98 
86 99 
86 102 
86 104 
86 105 
86 107 
86 110 
86 112 
86 113 
86 116 
86 118 
86 120 
86 122 
86 123 
86 125 
86 127 
86 129 
86 132 
86 134 
86 135 
86 137 
86 139 
86 141 
86 143 
86 145 
86 148 
86 149 
86 151 
86 154 
86 155 
86 157 
86 160 
86 162 
86 164 
86 166 
86 168 
86 170 
86 171 
86 173 
86 175 
87 88 
87 90 
87 92 
87 93 
87 96 
87 97 
87 100 
87 102 
87 103 
87 106 
87 107 
87 109 
87 112 
87 113 
87 115 
87 117 
87 119 
87 122 
87 123 
87 125 
87 128 
87 130 
87 132 
87 134 
87 135 
87 138 
87 140 
87 141 
87 144 
87 145 
87 148 
87 150 
87 152 
87 154 
87 155 
87 157 
87 159 
87 162 
87 164 
87 165 
87 168 
87 169 
87 172 
87 173 
87 175 
88 89 
88 91 
88 94 
88 95 
88 98 
88 99 
88 101 
88 104 
88 105 
88 108 
88 110 
88 111 
88 114 
88 116 
88 118 
88 120 
88 121 
88 124 
88 126 
88 127 
88 129 
88 131 
88 133 
88 136 
88 137 
88 139 
88 142 
88 143 
88 146 
88 147 
88 149 
88 151 
88 153 
88 156 
88 158 
88 160 
88 161 
88 163 
88 166 
88 167 
88 170 
88 171 
88 174 
88 176 
89 90 
91 92 
93 94 
95 96 
97 98 
99 100 
101 102 
103 104 
105 106 
107 108 
109 110 
111 112 
113 114 
115 116 
117 118 
119 120 
121 122 
123 124 
125 126 
127 128 
129 130 
131 132 
133 134 
135 136 
137 138 
139 140 
141 142 
143 144 
145 146 
147 148 
149 150 
151 152 
153 154 
155 156 
157 158 
159 160 
161 162 
163 164 
165 166 
167 168 
169 170 
171 172 
173 174 
175 176 
